
%FILE DATA:	Soccer Computational Problem for MiniZinc Models	%
%AUTHOR:	Jack Wall	%
%CONTACT:  	116397063@umail.ucc.ie			%
%LAST UPDATE:	03/03/2020, 16:38:38						%
%DESCRIPTION: 	88 games played with 22 games left				%


n=11; %number of teams

%Games to play
games=[|4,5|1,9|4,6|1,10|5,9|11,8|9,1|7,2|10,1|8,10|2,6|7,8|10,2|1,4|2,7|10,6|2,5|4,9|11,3|3,7|6,2|1,7|];

%Initial points
iPoints=[22,26,18,24,23,19,23,23,26,22,13];

%POSITION CONSTRAINTS
% [|teamID, operator, position|...]
% operators index:
%  1 for =  operator
%  2 for >  operator
%  3 for >= operator
%  4 for <  operator
%  5 for <= operator
positionConstraints=[|2,4,2|1,4,3|9,1,3|7,2,3|];